NAME orbit_srl_ilp
* Max problem is converted into Min one
ROWS
 N  OBJ
 L  constraint1_3790
 L  constraint1_6571
 L  constraint1_6572
 L  constraint1_6570
 L  constraint2_3790
 L  constraint2_3791
 L  constraint2_3792
 L  constraint2_3793
 L  constraint2_4860
 L  constraint2_4861
 L  constraint2_4862
 L  constraint2_4863
 L  constraint2_2930
 L  constraint2_2931
 L  constraint2_2932
 L  constraint2_2933
 L  constraint2_2230
 L  constraint2_2231
 L  constraint2_2232
 L  constraint2_2233
 L  constraint2_6570
 L  constraint2_6571
 L  constraint2_6572
 L  constraint2_6573
COLUMNS
    MARKER    'MARKER'                 'INTORG'
    Z_379_0_0  OBJ       -3.1143473771178546e-04
    Z_379_0_0  constraint1_3790  1
    Z_379_0_0  constraint2_3790  1
    Z_379_0_1  OBJ       -8.8764257233143974e-04
    Z_379_0_1  constraint1_3790  1
    Z_379_0_1  constraint2_3791  1
    Z_379_0_2  OBJ       -7.6442155632890618e-01
    Z_379_0_2  constraint1_3790  1
    Z_379_0_2  constraint2_3792  1
    Z_379_0_3  OBJ       -1.6240952192865419e-03
    Z_379_0_3  constraint1_3790  1
    Z_379_0_3  constraint2_3793  1
    Z_379_0_4  OBJ       -1.3275527114176414e-01
    Z_379_0_4  constraint1_3790  1
    Z_657_1_0  OBJ       -1.2718664052099175e-02
    Z_657_1_0  constraint1_6571  1
    Z_657_1_0  constraint2_6570  1
    Z_657_1_1  OBJ       -5.9746717911891810e-03
    Z_657_1_1  constraint1_6571  1
    Z_657_1_1  constraint2_6571  1
    Z_657_1_2  OBJ       -3.4471368232191560e-02
    Z_657_1_2  constraint1_6571  1
    Z_657_1_2  constraint2_6572  1
    Z_657_1_3  OBJ       -2.0074040801358905e-03
    Z_657_1_3  constraint1_6571  1
    Z_657_1_3  constraint2_6573  1
    Z_657_1_4  OBJ       -8.4482789184438423e-01
    Z_657_1_4  constraint1_6571  1
    Z_657_2_0  OBJ       -2.7239181815426968e-04
    Z_657_2_0  constraint1_6572  1
    Z_657_2_0  constraint2_6570  1
    Z_657_2_1  OBJ       -2.7053339822602600e-03
    Z_657_2_1  constraint1_6572  1
    Z_657_2_1  constraint2_6571  1
    Z_657_2_2  OBJ       -8.3683426080393730e-01
    Z_657_2_2  constraint1_6572  1
    Z_657_2_2  constraint2_6572  1
    Z_657_2_3  OBJ       -1.2638513344448989e-03
    Z_657_2_3  constraint1_6572  1
    Z_657_2_3  constraint2_6573  1
    Z_657_2_4  OBJ       -5.8924162061203468e-02
    Z_657_2_4  constraint1_6572  1
    Z_657_0_0  OBJ       -1.5052376664293691e-04
    Z_657_0_0  constraint1_6570  1
    Z_657_0_0  constraint2_6570  1
    Z_657_0_1  OBJ       -1.2202867278609565e-04
    Z_657_0_1  constraint1_6570  1
    Z_657_0_1  constraint2_6571  1
    Z_657_0_2  OBJ       -3.5236912686540417e-02
    Z_657_0_2  constraint1_6570  1
    Z_657_0_2  constraint2_6572  1
    Z_657_0_3  OBJ       -6.2810640271405364e-04
    Z_657_0_3  constraint1_6570  1
    Z_657_0_3  constraint2_6573  1
    Z_657_0_4  OBJ       -8.6386242847131645e-01
    Z_657_0_4  constraint1_6570  1
    MARKER    'MARKER'                 'INTEND'
RHS
    RHS1      constraint1_3790  1
    RHS1      constraint1_6571  1
    RHS1      constraint1_6572  1
    RHS1      constraint1_6570  1
    RHS1      constraint2_3790  1
    RHS1      constraint2_3791  1
    RHS1      constraint2_3792  1
    RHS1      constraint2_3793  1
    RHS1      constraint2_4860  1
    RHS1      constraint2_4861  1
    RHS1      constraint2_4862  1
    RHS1      constraint2_4863  1
    RHS1      constraint2_2930  1
    RHS1      constraint2_2931  1
    RHS1      constraint2_2932  1
    RHS1      constraint2_2933  1
    RHS1      constraint2_2230  1
    RHS1      constraint2_2231  1
    RHS1      constraint2_2232  1
    RHS1      constraint2_2233  1
    RHS1      constraint2_6570  1
    RHS1      constraint2_6571  1
    RHS1      constraint2_6572  1
    RHS1      constraint2_6573  1
BOUNDS
 UP BND1      Z_379_0_0  1
 UP BND1      Z_379_0_1  1
 UP BND1      Z_379_0_2  1
 UP BND1      Z_379_0_3  1
 UP BND1      Z_379_0_4  1
 UP BND1      Z_657_1_0  1
 UP BND1      Z_657_1_1  1
 UP BND1      Z_657_1_2  1
 UP BND1      Z_657_1_3  1
 UP BND1      Z_657_1_4  1
 UP BND1      Z_657_2_0  1
 UP BND1      Z_657_2_1  1
 UP BND1      Z_657_2_2  1
 UP BND1      Z_657_2_3  1
 UP BND1      Z_657_2_4  1
 UP BND1      Z_657_0_0  1
 UP BND1      Z_657_0_1  1
 UP BND1      Z_657_0_2  1
 UP BND1      Z_657_0_3  1
 UP BND1      Z_657_0_4  1
QUADOBJ
    Z_379_0_0  Z_657_2_0  -9.9999999999999978e-02
    Z_379_0_1  Z_657_2_1  -9.9999999999999978e-02
    Z_379_0_2  Z_657_2_2  -9.9999999999999978e-02
    Z_379_0_3  Z_657_2_3  -9.9999999999999978e-02
ENDATA
